f:0
solution:
61 17 3 7 68 69 14 23 9 1 74 75 28 45 10 47 18 25 2 27 22 5 20 34 16 29 24 26 12 13 94 15 96 49 50 43 44 53 36 55 86 54 93 41 40 37 38 111 32 33 114 115 48 52 118 51 58 56 122 63 62 60 73 59 66 67 42 83 0 71 6 70 8 105 106 11 77 79 110 87 64 89 90 126 80 99 117 4 112 88 46 95 84 92 30 31 39 65 102 35 116 100 103 125 72 97 98 21 76 101 78 109 113 81 82 123 107 85 119 127 104 57 120 91 108 121 124 19